\ Model MILP_KeyPath
\ LP format - for model browsing. Use MPS format to capture full model detail.
Minimize
  150 t(0,0) + 150 t(0,1) + 150 t(0,2) + 150 t(0,3) + 150 t(0,4)
   + 150 t(0,5) + 150 t(0,6) + 150 t(0,7) + 150 t(0,8) + 150 t(0,9)
   + 150 t(0,10) + 150 t(0,11) + 150 t(0,12) + 150 t(0,13) + 150 t(0,14)
   + 170 t(1,0) + 170 t(1,1) + 170 t(1,2) + 170 t(1,3) + 170 t(1,4)
   + 170 t(1,5) + 170 t(1,6) + 170 t(1,7) + 170 t(1,8) + 170 t(1,9)
   + 170 t(1,10) + 170 t(1,11) + 170 t(1,12) + 170 t(1,13) + 170 t(1,14)
   + 80 t(2,0) + 80 t(2,1) + 80 t(2,2) + 80 t(2,3) + 80 t(2,4) + 80 t(2,5)
   + 80 t(2,6) + 80 t(2,7) + 80 t(2,8) + 80 t(2,9) + 80 t(2,10)
   + 80 t(2,11) + 80 t(2,12) + 80 t(2,13) + 80 t(2,14) + 70 t(3,0)
   + 70 t(3,1) + 70 t(3,2) + 70 t(3,3) + 70 t(3,4) + 70 t(3,5) + 70 t(3,6)
   + 70 t(3,7) + 70 t(3,8) + 70 t(3,9) + 70 t(3,10) + 70 t(3,11)
   + 70 t(3,12) + 70 t(3,13) + 70 t(3,14) + 50 t(4,0) + 50 t(4,1)
   + 50 t(4,2) + 50 t(4,3) + 50 t(4,4) + 50 t(4,5) + 50 t(4,6) + 50 t(4,7)
   + 50 t(4,8) + 50 t(4,9) + 50 t(4,10) + 50 t(4,11) + 50 t(4,12)
   + 50 t(4,13) + 50 t(4,14) + 120 t(5,0) + 120 t(5,1) + 120 t(5,2)
   + 120 t(5,3) + 120 t(5,4) + 120 t(5,5) + 120 t(5,6) + 120 t(5,7)
   + 120 t(5,8) + 120 t(5,9) + 120 t(5,10) + 120 t(5,11) + 120 t(5,12)
   + 120 t(5,13) + 120 t(5,14) + 100 t(6,0) + 100 t(6,1) + 100 t(6,2)
   + 100 t(6,3) + 100 t(6,4) + 100 t(6,5) + 100 t(6,6) + 100 t(6,7)
   + 100 t(6,8) + 100 t(6,9) + 100 t(6,10) + 100 t(6,11) + 100 t(6,12)
   + 100 t(6,13) + 100 t(6,14) + 100 t(7,0) + 100 t(7,1) + 100 t(7,2)
   + 100 t(7,3) + 100 t(7,4) + 100 t(7,5) + 100 t(7,6) + 100 t(7,7)
   + 100 t(7,8) + 100 t(7,9) + 100 t(7,10) + 100 t(7,11) + 100 t(7,12)
   + 100 t(7,13) + 100 t(7,14) + 140 t(8,0) + 140 t(8,1) + 140 t(8,2)
   + 140 t(8,3) + 140 t(8,4) + 140 t(8,5) + 140 t(8,6) + 140 t(8,7)
   + 140 t(8,8) + 140 t(8,9) + 140 t(8,10) + 140 t(8,11) + 140 t(8,12)
   + 140 t(8,13) + 140 t(8,14) + 80 t(9,0) + 80 t(9,1) + 80 t(9,2)
   + 80 t(9,3) + 80 t(9,4) + 80 t(9,5) + 80 t(9,6) + 80 t(9,7) + 80 t(9,8)
   + 80 t(9,9) + 80 t(9,10) + 80 t(9,11) + 80 t(9,12) + 80 t(9,13)
   + 80 t(9,14) + 150 t(10,0) + 150 t(10,1) + 150 t(10,2) + 150 t(10,3)
   + 150 t(10,4) + 150 t(10,5) + 150 t(10,6) + 150 t(10,7) + 150 t(10,8)
   + 150 t(10,9) + 150 t(10,10) + 150 t(10,11) + 150 t(10,12)
   + 150 t(10,13) + 150 t(10,14) + 180 t(11,0) + 180 t(11,1) + 180 t(11,2)
   + 180 t(11,3) + 180 t(11,4) + 180 t(11,5) + 180 t(11,6) + 180 t(11,7)
   + 180 t(11,8) + 180 t(11,9) + 180 t(11,10) + 180 t(11,11) + 180 t(11,12)
   + 180 t(11,13) + 180 t(11,14) + 100 t(12,0) + 100 t(12,1) + 100 t(12,2)
   + 100 t(12,3) + 100 t(12,4) + 100 t(12,5) + 100 t(12,6) + 100 t(12,7)
   + 100 t(12,8) + 100 t(12,9) + 100 t(12,10) + 100 t(12,11) + 100 t(12,12)
   + 100 t(12,13) + 100 t(12,14) + 75 t(13,0) + 75 t(13,1) + 75 t(13,2)
   + 75 t(13,3) + 75 t(13,4) + 75 t(13,5) + 75 t(13,6) + 75 t(13,7)
   + 75 t(13,8) + 75 t(13,9) + 75 t(13,10) + 75 t(13,11) + 75 t(13,12)
   + 75 t(13,13) + 75 t(13,14) + 80 t(14,0) + 80 t(14,1) + 80 t(14,2)
   + 80 t(14,3) + 80 t(14,4) + 80 t(14,5) + 80 t(14,6) + 80 t(14,7)
   + 80 t(14,8) + 80 t(14,9) + 80 t(14,10) + 80 t(14,11) + 80 t(14,12)
   + 72.5 t(14,13) + 80 t(14,14)
Subject To
 C1(0): t(0,0) + t(0,1) + t(0,2) + t(0,3) + t(0,4) + t(0,5) + t(0,6)
   + t(0,7) + t(0,8) + t(0,9) + t(0,10) + t(0,11) + t(0,12) + t(0,13)
   + t(0,14) + t(6,0) + t(6,1) + t(6,2) + t(6,3) + t(6,4) + t(6,5) + t(6,6)
   + t(6,7) + t(6,8) + t(6,9) + t(6,10) + t(6,11) + t(6,12) + t(6,13)
   + t(6,14) >= 62
 C1(1): t(9,0) + t(9,1) + t(9,2) + t(9,3) + t(9,4) + t(9,5) + t(9,6)
   + t(9,7) + t(9,8) + t(9,9) + t(9,10) + t(9,11) + t(9,12) + t(9,13)
   + t(9,14) + t(13,0) + t(13,1) + t(13,2) + t(13,3) + t(13,4) + t(13,5)
   + t(13,6) + t(13,7) + t(13,8) + t(13,9) + t(13,10) + t(13,11) + t(13,12)
   + t(13,13) + t(13,14) - 0.1 t(14,13) >= 56
 C1(2): t(4,0) + t(4,1) + t(4,2) + t(4,3) + t(4,4) + t(4,5) + t(4,6)
   + t(4,7) + t(4,8) + t(4,9) + t(4,10) + t(4,11) + t(4,12) + t(4,13)
   + t(4,14) + t(6,0) + t(6,1) + t(6,2) + t(6,3) + t(6,4) + t(6,5) + t(6,6)
   + t(6,7) + t(6,8) + t(6,9) + t(6,10) + t(6,11) + t(6,12) + t(6,13)
   + t(6,14) + t(10,0) + t(10,1) + t(10,2) + t(10,3) + t(10,4) + t(10,5)
   + t(10,6) + t(10,7) + t(10,8) + t(10,9) + t(10,10) + t(10,11) + t(10,12)
   + t(10,13) + t(10,14) >= 36
 C1(3): t(1,0) + t(1,1) + t(1,2) + t(1,3) + t(1,4) + t(1,5) + t(1,6)
   + t(1,7) + t(1,8) + t(1,9) + t(1,10) + t(1,11) + t(1,12) + t(1,13)
   + t(1,14) + t(7,0) + t(7,1) + t(7,2) + t(7,3) + t(7,4) + t(7,5) + t(7,6)
   + t(7,7) + t(7,8) + t(7,9) + t(7,10) + t(7,11) + t(7,12) + t(7,13)
   + t(7,14) >= 82
 C1(4): t(2,0) + t(2,1) + t(2,2) + t(2,3) + t(2,4) + t(2,5) + t(2,6)
   + t(2,7) + t(2,8) + t(2,9) + t(2,10) + t(2,11) + t(2,12) + t(2,13)
   + t(2,14) + t(9,0) + t(9,1) + t(9,2) + t(9,3) + t(9,4) + t(9,5) + t(9,6)
   + t(9,7) + t(9,8) + t(9,9) + t(9,10) + t(9,11) + t(9,12) + t(9,13)
   + t(9,14) + t(12,0) + t(12,1) + t(12,2) + t(12,3) + t(12,4) + t(12,5)
   + t(12,6) + t(12,7) + t(12,8) + t(12,9) + t(12,10) + t(12,11) + t(12,12)
   + t(12,13) + t(12,14) >= 117
 C1(5): t(4,0) + t(4,1) + t(4,2) + t(4,3) + t(4,4) + t(4,5) + t(4,6)
   + t(4,7) + t(4,8) + t(4,9) + t(4,10) + t(4,11) + t(4,12) + t(4,13)
   + t(4,14) + t(8,0) + t(8,1) + t(8,2) + t(8,3) + t(8,4) + t(8,5) + t(8,6)
   + t(8,7) + t(8,8) + t(8,9) + t(8,10) + t(8,11) + t(8,12) + t(8,13)
   + t(8,14) >= 82
 C1(6): t(14,0) + t(14,1) + t(14,2) + t(14,3) + t(14,4) + t(14,5) + t(14,6)
   + t(14,7) + t(14,8) + t(14,9) + t(14,10) + t(14,11) + t(14,12)
   + t(14,13) + t(14,14) >= -64
 C1(7): t(3,0) + t(3,1) + t(3,2) + t(3,3) + t(3,4) + t(3,5) + t(3,6)
   + t(3,7) + t(3,8) + t(3,9) + t(3,10) + t(3,11) + t(3,12) + t(3,13)
   + t(3,14) >= -8
 C1(8): t(7,0) + t(7,1) + t(7,2) + t(7,3) + t(7,4) + t(7,5) + t(7,6)
   + t(7,7) + t(7,8) + t(7,9) + t(7,10) + t(7,11) + t(7,12) + t(7,13)
   + t(7,14) + t(11,0) + t(11,1) + t(11,2) + t(11,3) + t(11,4) + t(11,5)
   + t(11,6) + t(11,7) + t(11,8) + t(11,9) + t(11,10) + t(11,11) + t(11,12)
   + t(11,13) + t(11,14) >= 142
 C1(9): t(5,0) + t(5,1) + t(5,2) + t(5,3) + t(5,4) + t(5,5) + t(5,6)
   + t(5,7) + t(5,8) + t(5,9) + t(5,10) + t(5,11) + t(5,12) + t(5,13)
   + t(5,14) + t(12,0) + t(12,1) + t(12,2) + t(12,3) + t(12,4) + t(12,5)
   + t(12,6) + t(12,7) + t(12,8) + t(12,9) + t(12,10) + t(12,11) + t(12,12)
   + t(12,13) + t(12,14) >= 42
 C2(0): t(0,0) + t(0,1) + t(0,2) + t(0,3) + t(0,4) + t(0,5) + t(0,6)
   + t(0,7) + t(0,8) + t(0,9) + t(0,10) + t(0,11) + t(0,12) + t(0,13)
   + t(0,14) <= 90
 C2(1): t(1,0) + t(1,1) + t(1,2) + t(1,3) + t(1,4) + t(1,5) + t(1,6)
   + t(1,7) + t(1,8) + t(1,9) + t(1,10) + t(1,11) + t(1,12) + t(1,13)
   + t(1,14) <= 120
 C2(2): t(2,0) + t(2,1) + t(2,2) + t(2,3) + t(2,4) + t(2,5) + t(2,6)
   + t(2,7) + t(2,8) + t(2,9) + t(2,10) + t(2,11) + t(2,12) + t(2,13)
   + t(2,14) <= 70
 C2(3): t(3,0) + t(3,1) + t(3,2) + t(3,3) + t(3,4) + t(3,5) + t(3,6)
   + t(3,7) + t(3,8) + t(3,9) + t(3,10) + t(3,11) + t(3,12) + t(3,13)
   + t(3,14) <= 100
 C2(4): t(4,0) + t(4,1) + t(4,2) + t(4,3) + t(4,4) + t(4,5) + t(4,6)
   + t(4,7) + t(4,8) + t(4,9) + t(4,10) + t(4,11) + t(4,12) + t(4,13)
   + t(4,14) <= 50
 C2(5): t(5,0) + t(5,1) + t(5,2) + t(5,3) + t(5,4) + t(5,5) + t(5,6)
   + t(5,7) + t(5,8) + t(5,9) + t(5,10) + t(5,11) + t(5,12) + t(5,13)
   + t(5,14) <= 120
 C2(6): t(6,0) + t(6,1) + t(6,2) + t(6,3) + t(6,4) + t(6,5) + t(6,6)
   + t(6,7) + t(6,8) + t(6,9) + t(6,10) + t(6,11) + t(6,12) + t(6,13)
   + t(6,14) <= 80
 C2(7): t(7,0) + t(7,1) + t(7,2) + t(7,3) + t(7,4) + t(7,5) + t(7,6)
   + t(7,7) + t(7,8) + t(7,9) + t(7,10) + t(7,11) + t(7,12) + t(7,13)
   + t(7,14) <= 70
 C2(8): t(8,0) + t(8,1) + t(8,2) + t(8,3) + t(8,4) + t(8,5) + t(8,6)
   + t(8,7) + t(8,8) + t(8,9) + t(8,10) + t(8,11) + t(8,12) + t(8,13)
   + t(8,14) <= 140
 C2(9): t(9,0) + t(9,1) + t(9,2) + t(9,3) + t(9,4) + t(9,5) + t(9,6)
   + t(9,7) + t(9,8) + t(9,9) + t(9,10) + t(9,11) + t(9,12) + t(9,13)
   + t(9,14) <= 125
 C2(10): t(10,0) + t(10,1) + t(10,2) + t(10,3) + t(10,4) + t(10,5)
   + t(10,6) + t(10,7) + t(10,8) + t(10,9) + t(10,10) + t(10,11) + t(10,12)
   + t(10,13) + t(10,14) <= 50
 C2(11): t(11,0) + t(11,1) + t(11,2) + t(11,3) + t(11,4) + t(11,5)
   + t(11,6) + t(11,7) + t(11,8) + t(11,9) + t(11,10) + t(11,11) + t(11,12)
   + t(11,13) + t(11,14) <= 180
 C2(12): t(12,0) + t(12,1) + t(12,2) + t(12,3) + t(12,4) + t(12,5)
   + t(12,6) + t(12,7) + t(12,8) + t(12,9) + t(12,10) + t(12,11) + t(12,12)
   + t(12,13) + t(12,14) <= 30
 C2(13): t(13,0) + t(13,1) + t(13,2) + t(13,3) + t(13,4) + t(13,5)
   + t(13,6) + t(13,7) + t(13,8) + t(13,9) + t(13,10) + t(13,11) + t(13,12)
   + t(13,13) + t(13,14) <= 75
 C2(14): t(14,0) + t(14,1) + t(14,2) + t(14,3) + t(14,4) + t(14,5)
   + t(14,6) + t(14,7) + t(14,8) + t(14,9) + t(14,10) + t(14,11) + t(14,12)
   + t(14,13) + t(14,14) <= 80
Bounds
Generals
 t(0,0) t(0,1) t(0,2) t(0,3) t(0,4) t(0,5) t(0,6) t(0,7) t(0,8) t(0,9)
 t(0,10) t(0,11) t(0,12) t(0,13) t(0,14) t(1,0) t(1,1) t(1,2) t(1,3) t(1,4)
 t(1,5) t(1,6) t(1,7) t(1,8) t(1,9) t(1,10) t(1,11) t(1,12) t(1,13) t(1,14)
 t(2,0) t(2,1) t(2,2) t(2,3) t(2,4) t(2,5) t(2,6) t(2,7) t(2,8) t(2,9)
 t(2,10) t(2,11) t(2,12) t(2,13) t(2,14) t(3,0) t(3,1) t(3,2) t(3,3) t(3,4)
 t(3,5) t(3,6) t(3,7) t(3,8) t(3,9) t(3,10) t(3,11) t(3,12) t(3,13) t(3,14)
 t(4,0) t(4,1) t(4,2) t(4,3) t(4,4) t(4,5) t(4,6) t(4,7) t(4,8) t(4,9)
 t(4,10) t(4,11) t(4,12) t(4,13) t(4,14) t(5,0) t(5,1) t(5,2) t(5,3) t(5,4)
 t(5,5) t(5,6) t(5,7) t(5,8) t(5,9) t(5,10) t(5,11) t(5,12) t(5,13) t(5,14)
 t(6,0) t(6,1) t(6,2) t(6,3) t(6,4) t(6,5) t(6,6) t(6,7) t(6,8) t(6,9)
 t(6,10) t(6,11) t(6,12) t(6,13) t(6,14) t(7,0) t(7,1) t(7,2) t(7,3) t(7,4)
 t(7,5) t(7,6) t(7,7) t(7,8) t(7,9) t(7,10) t(7,11) t(7,12) t(7,13) t(7,14)
 t(8,0) t(8,1) t(8,2) t(8,3) t(8,4) t(8,5) t(8,6) t(8,7) t(8,8) t(8,9)
 t(8,10) t(8,11) t(8,12) t(8,13) t(8,14) t(9,0) t(9,1) t(9,2) t(9,3) t(9,4)
 t(9,5) t(9,6) t(9,7) t(9,8) t(9,9) t(9,10) t(9,11) t(9,12) t(9,13) t(9,14)
 t(10,0) t(10,1) t(10,2) t(10,3) t(10,4) t(10,5) t(10,6) t(10,7) t(10,8)
 t(10,9) t(10,10) t(10,11) t(10,12) t(10,13) t(10,14) t(11,0) t(11,1)
 t(11,2) t(11,3) t(11,4) t(11,5) t(11,6) t(11,7) t(11,8) t(11,9) t(11,10)
 t(11,11) t(11,12) t(11,13) t(11,14) t(12,0) t(12,1) t(12,2) t(12,3)
 t(12,4) t(12,5) t(12,6) t(12,7) t(12,8) t(12,9) t(12,10) t(12,11) t(12,12)
 t(12,13) t(12,14) t(13,0) t(13,1) t(13,2) t(13,3) t(13,4) t(13,5) t(13,6)
 t(13,7) t(13,8) t(13,9) t(13,10) t(13,11) t(13,12) t(13,13) t(13,14)
 t(14,0) t(14,1) t(14,2) t(14,3) t(14,4) t(14,5) t(14,6) t(14,7) t(14,8)
 t(14,9) t(14,10) t(14,11) t(14,12) t(14,13) t(14,14)
End
